<number of tasks>
58

<cycle time>
62

<task times>
1 10
2 53
3 41
4 36
5 35
6 17
7 34
8 23
9 14
10 52
11 33
12 34
13 12
14 52
15 12
16 33
17 44
18 7
19 15
20 13
21 29
22 37
23 43
24 23
25 24
26 9
27 16
28 12
29 26
30 22
31 51
32 47
33 34
34 23
35 12
36 52
37 12
38 33
39 44
40 7
41 15
42 13
43 29
44 37
45 43
46 23
47 24
48 9
49 16
50 12
51 26
52 12
53 52
54 12
55 33
56 44
57 7
58 15

<precedence relations>
1,9
2,25
3,21
3,22
4,10
5,36
6,23
6,24
7,43
8,44
9,11
11,13
11,14
11,15
12,17
13,17
14,17
15,17
16,18
17,20
18,19
19,23
20,21
20,25
21,26
21,44
22,27
23,31
24,31
25,38
26,29
27,30
28,32
28,33
29,31
30,34
31,36
32,45
33,35
34,36
35,43
36,37
36,38
37,39
37,40
37,41
38,52
39,43
40,43
41,42
42,43
43,45
44,45
45,46
45,48
45,49
46,47
46,50
47,51
48,55
49,58
50,58
51,52
52,53
53,54
54,55
54,56
55,57
56,57
57,58

<setup times forward>
1,2:3
1,3:2
1,4:1
1,5:1
1,6:2
1,8:3
1,9:2
1,10:2
1,12:1
1,16:4
1,18:1
1,19:1
1,22:3
1,23:2
1,24:1
1,27:5
1,28:1
1,32:3
1,35:5
2,1:3
2,3:5
2,4:2
2,5:2
2,6:5
2,7:3
2,8:6
2,9:1
2,10:5
2,11:7
2,12:4
2,13:2
2,14:1
2,15:8
2,16:7
2,18:4
2,19:2
2,20:1
2,21:1
2,22:6
2,23:1
2,24:4
2,25:5
2,26:7
2,27:8
2,28:2
2,29:7
2,30:3
2,31:1
2,33:3
2,34:3
2,35:8
2,36:2
2,37:7
2,39:4
2,40:7
2,41:7
2,42:8
2,43:3
2,44:4
2,45:5
2,46:1
2,47:6
2,48:6
2,49:5
2,50:1
2,51:3
3,1:2
3,2:5
3,4:3
3,5:3
3,7:2
3,8:1
3,9:4
3,11:2
3,12:1
3,13:3
3,14:4
3,15:3
3,16:2
3,17:5
3,18:1
3,19:3
3,20:4
3,21:4
3,22:1
3,23:4
3,24:1
3,28:3
3,32:5
3,33:2
3,35:3
4,1:1
4,2:2
4,3:3
4,6:3
4,7:1
4,8:4
4,9:1
4,10:3
4,11:5
4,12:2
4,14:1
4,15:6
4,16:5
4,17:2
4,18:2
4,20:1
4,21:1
4,22:4
4,23:1
4,24:2
4,25:3
4,26:5
4,27:6
4,29:5
4,30:1
4,31:1
4,32:2
4,33:1
4,34:1
4,35:6
4,37:5
4,38:2
4,39:2
4,40:5
4,41:5
4,42:6
4,43:1
4,44:2
4,45:3
4,46:1
4,47:4
4,48:4
4,49:3
4,50:1
4,51:1
4,52:5
4,53:1
4,54:5
4,56:2
4,57:3
4,58:6
5,1:1
5,2:2
5,3:3
5,6:3
5,7:1
5,8:4
5,9:1
5,10:3
5,11:5
5,12:2
5,14:1
5,15:6
5,16:5
5,17:2
5,18:2
5,20:1
5,21:1
5,22:4
5,23:1
5,24:2
5,25:3
5,26:5
5,27:6
5,29:5
5,30:1
5,31:1
5,32:2
5,33:1
5,34:1
5,35:6
5,44:2
6,1:2
6,2:5
6,4:3
6,5:3
6,7:2
6,8:1
6,9:4
6,11:2
6,12:1
6,13:3
6,14:4
6,15:3
6,16:2
6,17:5
6,18:1
6,19:3
6,20:4
6,21:4
6,22:1
6,23:4
6,24:1
6,26:2
6,27:3
6,28:3
6,29:2
6,30:2
6,32:5
6,33:2
6,34:2
6,35:3
6,44:1
7,2:3
7,3:2
7,4:1
7,5:1
7,6:2
7,8:3
7,9:2
7,10:2
7,11:4
7,12:1
7,13:1
7,14:2
7,15:5
7,16:4
7,17:3
7,18:1
7,19:1
7,20:2
7,21:2
7,22:3
7,23:2
7,24:1
7,25:2
7,26:4
7,27:5
7,28:1
7,29:4
7,31:2
7,32:3
7,35:5
7,36:1
7,37:4
7,38:3
7,39:1
7,40:4
7,41:4
7,42:5
7,44:1
8,1:3
8,2:6
8,3:1
8,4:4
8,5:4
8,6:1
8,7:3
8,9:5
8,10:1
8,11:1
8,12:2
8,13:4
8,14:5
8,15:2
8,16:1
8,17:6
8,18:2
8,19:4
8,20:5
8,21:5
8,23:5
8,24:2
8,25:1
8,26:1
8,27:2
8,28:4
8,29:1
8,30:3
8,31:5
8,32:6
8,33:3
8,34:3
8,35:2
8,36:4
8,37:1
8,38:6
8,39:2
8,40:1
8,41:1
8,42:2
8,43:3
8,44:2
9,2:1
9,3:4
9,4:1
9,5:1
9,6:4
9,7:2
9,8:5
9,10:4
9,11:6
9,12:3
9,16:6
9,18:3
9,19:1
9,22:5
9,24:3
9,27:7
9,28:1
9,30:2
9,32:1
9,33:2
9,34:2
9,35:7
10,1:2
10,2:5
10,5:3
10,7:2
10,8:1
10,9:4
10,11:2
10,12:1
10,13:3
10,14:4
10,15:3
10,16:2
10,17:5
10,18:1
10,19:3
10,20:4
10,21:4
10,22:1
10,23:4
10,24:1
10,26:2
10,27:3
10,28:3
10,29:2
10,30:2
10,31:4
10,32:5
10,33:2
10,34:2
10,35:3
10,36:3
10,37:2
10,38:5
10,39:1
10,40:2
10,41:2
10,42:3
10,43:2
10,44:1
10,46:4
10,47:1
10,48:1
10,50:4
10,51:2
10,52:2
10,53:2
10,54:2
10,55:3
10,56:5
10,58:3
11,2:7
11,3:2
11,4:5
11,5:5
11,6:2
11,7:4
11,8:1
11,10:2
11,12:3
11,13:5
11,14:6
11,15:1
11,18:3
11,19:5
11,22:1
11,23:6
11,24:3
11,27:1
11,28:5
11,30:4
11,32:7
11,33:4
11,34:4
11,35:1
12,1:1
12,2:4
12,3:1
12,4:2
12,5:2
12,6:1
12,7:1
12,8:2
12,9:3
12,10:1
12,11:3
12,13:2
12,14:3
12,15:4
12,16:3
12,17:4
12,19:2
12,22:2
12,23:3
12,27:4
12,28:2
12,30:1
12,32:4
12,33:1
12,34:1
12,35:4
13,2:2
13,3:3
13,6:3
13,7:1
13,8:4
13,10:3
13,12:2
13,14:1
13,15:6
13,16:5
13,17:2
13,18:2
13,22:4
13,23:1
13,24:2
13,27:6
13,30:1
13,32:2
13,33:1
13,34:1
13,35:6
14,2:1
14,3:4
14,4:1
14,5:1
14,6:4
14,7:2
14,8:5
14,10:4
14,12:3
14,13:1
14,15:7
14,16:6
14,17:1
14,18:3
14,19:1
14,22:5
14,24:3
14,27:7
14,28:1
14,30:2
14,32:1
14,33:2
14,34:2
14,35:7
15,2:8
15,3:3
15,4:6
15,5:6
15,6:3
15,7:5
15,8:2
15,10:3
15,12:4
15,13:6
15,14:7
15,16:1
15,17:8
15,18:4
15,19:6
15,22:2
15,23:7
15,24:4
15,28:6
15,30:5
15,32:8
15,33:5
15,34:5
16,1:4
16,2:7
16,3:2
16,4:5
16,5:5
16,6:2
16,7:4
16,8:1
16,9:6
16,10:2
16,12:3
16,13:5
16,14:6
16,15:1
16,17:7
16,18:3
16,20:6
16,21:6
16,22:1
16,24:3
16,25:2
16,27:1
16,28:5
16,30:4
16,32:7
16,33:4
16,34:4
16,35:1
16,44:3
17,3:5
17,4:2
17,5:2
17,6:5
17,7:3
17,8:6
17,10:5
17,16:7
17,18:4
17,19:2
17,20:1
17,22:6
17,23:1
17,24:4
17,27:8
17,28:2
17,30:3
17,33:3
17,34:3
17,35:8
18,1:1
18,2:4
18,3:1
18,4:2
18,5:2
18,6:1
18,7:1
18,8:2
18,9:3
18,10:1
18,11:3
18,13:2
18,14:3
18,15:4
18,17:4
18,19:2
18,20:3
18,21:3
18,22:2
18,25:1
18,26:3
18,27:4
18,28:2
18,29:3
18,30:1
18,32:4
18,33:1
18,34:1
18,35:4
19,1:1
19,2:2
19,3:3
19,6:3
19,7:1
19,8:4
19,9:1
19,10:3
19,11:5
19,12:2
19,14:1
19,15:6
19,17:2
19,20:1
19,21:1
19,22:4
19,23:1
19,24:2
19,25:3
19,26:5
19,27:6
19,29:5
19,30:1
19,32:2
19,33:1
19,34:1
19,35:6
19,44:2
20,2:1
20,3:4
20,4:1
20,5:1
20,6:4
20,7:2
20,8:5
20,10:4
20,16:6
20,18:3
20,19:1
20,22:5
20,24:3
20,25:4
20,27:7
20,28:1
20,30:2
20,32:1
20,33:2
20,34:2
20,35:7
21,2:1
21,4:1
21,5:1
21,6:4
21,7:2
21,8:5
21,10:4
21,16:6
21,18:3
21,19:1
21,22:5
21,24:3
21,25:4
21,26:6
21,27:7
21,28:1
21,30:2
21,32:1
21,33:2
21,34:2
21,35:7
21,44:3
22,1:3
22,2:6
22,4:4
22,5:4
22,6:1
22,7:3
22,9:5
22,10:1
22,11:1
22,12:2
22,13:4
22,14:5
22,15:2
22,16:1
22,17:6
22,18:2
22,19:4
22,20:5
22,21:5
22,23:5
22,24:2
22,25:1
22,26:1
22,27:2
22,28:4
22,29:1
22,31:5
22,32:6
22,33:3
22,35:2
22,44:2
23,1:2
23,2:1
23,3:4
23,4:1
23,5:1
23,7:2
23,8:5
23,10:4
23,11:6
23,12:3
23,13:1
23,15:7
23,17:1
23,22:5
23,24:3
23,25:4
23,26:6
23,27:7
23,28:1
23,29:6
23,30:2
23,32:1
23,33:2
23,34:2
23,35:7
23,44:3
24,1:1
24,2:4
24,3:1
24,4:2
24,5:2
24,7:1
24,8:2
24,9:3
24,10:1
24,11:3
24,13:2
24,14:3
24,15:4
24,16:3
24,17:4
24,19:2
24,20:3
24,21:3
24,22:2
24,23:3
24,25:1
24,26:3
24,27:4
24,28:2
24,29:3
24,30:1
24,31:3
24,32:4
24,33:1
24,34:1
24,35:4
25,4:3
25,5:3
25,7:2
25,8:1
25,16:2
25,18:1
25,19:3
25,21:4
25,22:1
25,23:4
25,24:1
25,26:2
25,27:3
25,28:3
25,29:2
25,30:2
25,31:4
25,32:5
25,33:2
25,34:2
25,35:3
25,36:3
25,37:2
25,38:5
25,39:1
25,40:2
25,41:2
25,42:3
25,43:2
25,44:1
25,46:4
25,47:1
25,48:1
25,50:4
25,51:2
26,2:7
26,4:5
26,5:5
26,6:2
26,7:4
26,8:1
26,10:2
26,18:3
26,19:5
26,22:1
26,23:6
26,24:3
26,25:2
26,27:1
26,28:5
26,30:4
26,32:7
26,33:4
26,34:4
26,35:1
26,44:3
27,1:5
27,2:8
27,4:6
27,5:6
27,6:3
27,7:5
27,8:2
27,9:7
27,10:3
27,11:1
27,12:4
27,13:6
27,14:7
27,16:1
27,17:8
27,18:4
27,19:6
27,20:7
27,21:7
27,23:7
27,24:4
27,25:3
27,26:1
27,28:6
27,29:1
27,30:5
27,31:7
27,32:8
27,33:5
27,44:4
28,1:1
28,2:2
28,3:3
28,6:3
28,7:1
28,8:4
28,9:1
28,10:3
28,11:5
28,12:2
28,14:1
28,15:6
28,16:5
28,17:2
28,18:2
28,20:1
28,21:1
28,22:4
28,23:1
28,24:2
28,25:3
28,26:5
28,27:6
28,29:5
28,30:1
28,31:1
28,32:2
28,33:1
28,34:1
28,37:5
28,38:2
28,39:2
28,40:5
28,41:5
28,42:6
28,44:2
29,2:7
29,4:5
29,5:5
29,6:2
29,7:4
29,8:1
29,10:2
29,18:3
29,19:5
29,22:1
29,23:6
29,24:3
29,25:2
29,27:1
29,28:5
29,30:4
29,31:6
29,32:7
29,33:4
29,34:4
29,35:1
29,44:3
30,2:3
30,4:1
30,5:1
30,6:2
30,8:3
30,9:2
30,10:2
30,11:4
30,12:1
30,13:1
30,14:2
30,15:5
30,16:4
30,17:3
30,18:1
30,19:1
30,20:2
30,21:2
30,23:2
30,24:1
30,25:2
30,26:4
30,28:1
30,29:4
30,31:2
30,32:3
30,35:5
30,44:1
31,2:1
31,4:1
31,5:1
31,7:2
31,8:5
31,10:4
31,22:5
31,25:4
31,27:7
31,28:1
31,30:2
31,32:1
31,33:2
31,34:2
31,35:7
31,36:1
31,44:3
32,1:3
32,3:5
32,4:2
32,5:2
32,6:5
32,7:3
32,8:6
32,9:1
32,10:5
32,11:7
32,12:4
32,13:2
32,14:1
32,15:8
32,16:7
32,18:4
32,19:2
32,20:1
32,21:1
32,22:6
32,23:1
32,24:4
32,25:5
32,26:7
32,27:8
32,29:7
32,30:3
32,31:1
32,33:3
32,34:3
32,35:8
32,36:2
32,37:7
32,39:4
32,40:7
32,41:7
32,42:8
32,43:3
32,44:4
32,45:5
33,2:3
33,3:2
33,4:1
33,5:1
33,6:2
33,8:3
33,9:2
33,10:2
33,11:4
33,12:1
33,13:1
33,14:2
33,15:5
33,16:4
33,17:3
33,18:1
33,19:1
33,20:2
33,21:2
33,22:3
33,23:2
33,24:1
33,25:2
33,26:4
33,27:5
33,29:4
33,31:2
33,32:3
33,35:5
33,36:1
33,37:4
33,38:3
33,39:1
33,40:4
33,41:4
33,42:5
33,44:1
34,2:3
34,4:1
34,5:1
34,6:2
34,8:3
34,9:2
34,10:2
34,11:4
34,12:1
34,13:1
34,14:2
34,15:5
34,16:4
34,17:3
34,18:1
34,19:1
34,20:2
34,21:2
34,23:2
34,24:1
34,25:2
34,26:4
34,28:1
34,29:4
34,31:2
34,32:3
34,35:5
34,36:1
34,44:1
35,1:5
35,2:8
35,3:3
35,4:6
35,5:6
35,6:3
35,7:5
35,8:2
35,9:7
35,10:3
35,11:1
35,12:4
35,13:6
35,14:7
35,16:1
35,17:8
35,18:4
35,19:6
35,20:7
35,21:7
35,22:2
35,23:7
35,24:4
35,25:3
35,26:1
35,29:1
35,30:5
35,31:7
35,32:8
35,34:5
35,36:6
35,37:1
35,38:8
35,39:4
35,40:1
35,41:1
35,43:5
35,44:4
36,2:2
36,7:1
36,8:4
36,10:3
36,25:3
36,32:2
36,33:1
36,35:6
36,37:5
36,38:2
36,44:2
37,2:7
37,4:5
37,7:4
37,8:1
37,10:2
37,25:2
37,28:5
37,32:7
37,33:4
37,35:1
37,38:7
37,39:3
37,44:3
38,4:2
38,7:3
38,8:6
38,10:5
38,28:2
38,33:3
38,35:8
38,37:7
38,39:4
38,40:7
38,41:7
38,42:8
38,43:3
38,44:4
38,45:5
38,46:1
38,47:6
38,48:6
38,49:5
38,50:1
38,51:3
38,52:7
39,2:4
39,4:2
39,7:1
39,8:2
39,10:1
39,25:1
39,28:2
39,32:4
39,33:1
39,35:4
39,38:4
39,40:3
39,41:3
39,42:4
39,43:1
40,2:7
40,4:5
40,7:4
40,8:1
40,10:2
40,25:2
40,28:5
40,32:7
40,33:4
40,35:1
40,38:7
40,39:3
40,42:1
40,43:4
40,44:3
41,2:7
41,4:5
41,7:4
41,8:1
41,10:2
41,25:2
41,28:5
41,32:7
41,33:4
41,35:1
41,38:7
41,39:3
41,42:1
41,44:3
42,2:8
42,4:6
42,7:5
42,8:2
42,10:3
42,25:3
42,28:6
42,32:8
42,33:5
42,38:8
42,39:4
42,40:1
42,43:5
42,44:4
43,2:3
43,4:1
43,8:3
43,10:2
43,25:2
43,32:3
43,38:3
43,44:1
43,45:2
44,2:4
44,4:2
44,5:2
44,6:1
44,7:1
44,10:1
44,16:3
44,19:2
44,22:2
44,23:3
44,25:1
44,26:3
44,27:4
44,28:2
44,29:3
44,30:1
44,31:3
44,32:4
44,33:1
44,34:1
44,35:4
44,36:2
44,37:3
44,38:4
44,40:3
44,41:3
44,42:4
44,43:1
44,45:1
45,2:5
45,4:3
45,38:5
45,46:4
45,48:1
46,2:1
46,4:1
46,10:4
46,25:4
46,38:1
46,47:5
46,48:5
46,49:4
47,2:6
47,4:4
47,10:1
47,25:1
47,38:6
47,49:1
47,50:5
47,51:3
48,2:6
48,4:4
48,10:1
48,25:1
48,38:6
48,46:5
48,49:1
48,50:5
48,51:3
48,52:1
48,53:3
48,54:1
48,55:4
48,56:6
49,2:5
49,4:3
49,38:5
49,46:4
49,47:1
49,48:1
49,50:4
49,51:2
49,52:2
49,53:2
49,54:2
49,55:3
49,56:5
49,58:3
50,2:1
50,4:1
50,10:4
50,25:4
50,38:1
50,47:5
50,48:5
50,49:4
50,51:2
50,52:6
50,53:2
50,54:6
50,55:1
50,56:1
50,57:4
50,58:7
51,2:3
51,4:1
51,10:2
51,25:2
51,38:3
51,48:3
51,49:2
51,50:2
51,52:4
52,4:5
52,10:2
52,48:1
52,49:2
52,50:6
52,53:4
53,4:1
53,10:2
53,48:3
53,49:2
53,50:2
53,54:4
54,4:5
54,10:2
54,48:1
54,49:2
54,50:6
54,55:5
54,56:7
55,10:3
55,49:3
55,50:1
55,56:2
55,57:3
56,4:2
56,10:5
56,48:6
56,49:5
56,50:1
56,55:2
56,57:5
57,4:3
57,50:4
57,58:3
58,4:6
58,10:3

<setup times backward>
1,1:9
1,2:6
1,3:11
1,4:8
1,5:8
1,6:11
1,7:9
1,8:12
1,10:11
1,12:10
1,16:13
1,18:10
1,19:8
1,22:12
1,23:7
1,24:10
1,27:14
1,28:8
1,30:9
1,32:6
1,33:9
1,34:9
1,35:14
2,1:12
2,2:9
2,3:14
2,4:11
2,5:11
2,6:14
2,7:12
2,8:15
2,9:10
2,10:14
2,11:16
2,12:13
2,13:11
2,14:10
2,15:17
2,16:16
2,17:9
2,18:13
2,19:11
2,20:10
2,21:10
2,22:15
2,23:10
2,24:13
2,26:16
2,27:17
2,28:11
2,29:16
2,30:12
2,31:10
2,32:9
2,33:12
2,34:12
2,35:17
2,36:11
2,37:16
2,39:13
2,40:16
2,41:16
2,42:17
2,43:12
2,44:13
2,45:14
2,46:10
2,47:15
2,48:15
2,49:14
2,50:10
2,51:12
3,1:7
3,2:4
3,3:9
3,4:6
3,5:6
3,6:9
3,7:7
3,8:10
3,9:5
3,10:9
3,11:11
3,12:8
3,13:6
3,14:5
3,15:12
3,16:11
3,17:4
3,18:8
3,19:6
3,20:5
3,23:5
3,24:8
3,25:9
3,28:6
3,32:4
3,33:7
3,35:12
4,1:10
4,2:7
4,3:12
4,4:9
4,5:9
4,6:12
4,7:10
4,8:13
4,9:8
4,11:14
4,12:11
4,13:9
4,14:8
4,15:15
4,16:14
4,17:7
4,18:11
4,19:9
4,20:8
4,21:8
4,22:13
4,23:8
4,24:11
4,25:12
4,26:14
4,27:15
4,28:9
4,29:14
4,30:10
4,31:8
4,32:7
4,33:10
4,34:10
4,35:15
4,36:9
4,37:14
4,38:7
4,39:11
4,40:14
4,41:14
4,42:15
4,43:10
4,44:11
4,45:12
4,46:8
4,47:13
4,48:13
4,49:12
4,50:8
4,51:10
4,52:14
4,53:10
4,54:14
4,55:9
4,56:7
4,57:12
4,58:15
5,1:10
5,2:7
5,3:12
5,4:9
5,5:9
5,6:12
5,7:10
5,8:13
5,9:8
5,10:12
5,11:14
5,12:11
5,13:9
5,14:8
5,15:15
5,16:14
5,17:7
5,18:11
5,19:9
5,20:8
5,21:8
5,22:13
5,23:8
5,24:11
5,25:12
5,26:14
5,27:15
5,28:9
5,29:14
5,30:10
5,31:8
5,32:7
5,33:10
5,34:10
5,35:15
5,44:11
6,1:7
6,2:4
6,3:9
6,4:6
6,5:6
6,6:9
6,7:7
6,8:10
6,9:5
6,10:9
6,11:11
6,12:8
6,13:6
6,14:5
6,15:12
6,16:11
6,17:4
6,18:8
6,19:6
6,20:5
6,21:5
6,22:10
6,25:9
6,26:11
6,27:12
6,28:6
6,29:11
6,30:7
6,32:4
6,33:7
6,34:7
6,35:12
6,44:8
7,1:9
7,2:6
7,3:11
7,4:8
7,5:8
7,6:11
7,7:9
7,8:12
7,9:7
7,10:11
7,11:13
7,12:10
7,13:8
7,14:7
7,15:14
7,16:13
7,17:6
7,18:10
7,19:8
7,20:7
7,21:7
7,22:12
7,23:7
7,24:10
7,25:11
7,26:13
7,27:14
7,28:8
7,29:13
7,30:9
7,31:7
7,32:6
7,33:9
7,34:9
7,35:14
7,36:8
7,37:13
7,38:6
7,39:10
7,40:13
7,41:13
7,42:14
7,44:10
8,1:6
8,2:3
8,3:8
8,4:5
8,5:5
8,6:8
8,7:6
8,8:9
8,9:4
8,10:8
8,11:10
8,12:7
8,13:5
8,14:4
8,15:11
8,16:10
8,17:3
8,18:7
8,19:5
8,20:4
8,21:4
8,22:9
8,23:4
8,24:7
8,25:8
8,26:10
8,27:11
8,28:5
8,29:10
8,30:6
8,31:4
8,32:3
8,33:6
8,34:6
8,35:11
8,36:5
8,37:10
8,38:3
8,39:7
8,40:10
8,41:10
8,42:11
8,43:6
9,1:11
9,2:8
9,3:13
9,4:10
9,5:10
9,6:13
9,7:11
9,8:14
9,9:9
9,10:13
9,12:12
9,16:15
9,18:12
9,19:10
9,22:14
9,23:9
9,24:12
9,27:16
9,28:10
9,30:11
9,32:8
9,33:11
9,34:11
9,35:16
10,1:7
10,2:4
10,3:9
10,4:6
10,5:6
10,6:9
10,7:7
10,8:10
10,9:5
10,10:9
10,11:11
10,12:8
10,13:6
10,14:5
10,15:12
10,16:11
10,17:4
10,18:8
10,19:6
10,20:5
10,21:5
10,22:10
10,23:5
10,24:8
10,25:9
10,26:11
10,27:12
10,28:6
10,29:11
10,30:7
10,31:5
10,32:4
10,33:7
10,34:7
10,35:12
10,36:6
10,37:11
10,38:4
10,39:8
10,40:11
10,41:11
10,42:12
10,43:7
10,44:8
10,45:9
10,46:5
10,47:10
10,48:10
10,49:9
10,50:5
10,51:7
10,52:11
10,53:7
10,54:11
10,55:6
10,56:4
10,57:9
10,58:12
11,1:5
11,2:2
11,3:7
11,4:4
11,5:4
11,6:7
11,7:5
11,8:8
11,9:3
11,10:7
11,11:9
11,12:6
11,16:9
11,18:6
11,19:4
11,22:8
11,23:3
11,24:6
11,27:10
11,28:4
11,30:5
11,32:2
11,33:5
11,34:5
11,35:10
12,1:8
12,2:5
12,3:10
12,4:7
12,5:7
12,6:10
12,7:8
12,8:11
12,9:6
12,10:10
12,11:12
12,12:9
12,13:7
12,14:6
12,15:13
12,16:12
12,18:9
12,19:7
12,22:11
12,23:6
12,24:9
12,27:13
12,28:7
12,30:8
12,32:5
12,33:8
12,34:8
12,35:13
13,1:10
13,2:7
13,3:12
13,4:9
13,5:9
13,6:12
13,7:10
13,8:13
13,9:8
13,10:12
13,11:14
13,12:11
13,13:9
13,14:8
13,15:15
13,16:14
13,18:11
13,19:9
13,22:13
13,23:8
13,24:11
13,27:15
13,28:9
13,30:10
13,32:7
13,33:10
13,34:10
13,35:15
14,1:11
14,2:8
14,3:13
14,4:10
14,5:10
14,6:13
14,7:11
14,8:14
14,9:9
14,10:13
14,11:15
14,12:12
14,13:10
14,14:9
14,15:16
14,16:15
14,18:12
14,19:10
14,22:14
14,23:9
14,24:12
14,27:16
14,28:10
14,30:11
14,32:8
14,33:11
14,34:11
14,35:16
15,1:4
15,2:1
15,3:6
15,4:3
15,5:3
15,6:6
15,7:4
15,8:7
15,9:2
15,10:6
15,11:8
15,12:5
15,13:3
15,14:2
15,15:9
15,16:8
15,18:5
15,19:3
15,22:7
15,23:2
15,24:5
15,27:9
15,28:3
15,30:4
15,32:1
15,33:4
15,34:4
15,35:9
16,1:5
16,2:2
16,3:7
16,4:4
16,5:4
16,6:7
16,7:5
16,8:8
16,9:3
16,10:7
16,11:9
16,12:6
16,13:4
16,14:3
16,15:10
16,16:9
16,17:2
16,20:3
16,21:3
16,22:8
16,24:6
16,25:7
16,26:9
16,27:10
16,28:4
16,29:9
16,30:5
16,32:2
16,33:5
16,34:5
16,35:10
16,44:6
17,1:12
17,2:9
17,3:14
17,4:11
17,5:11
17,6:14
17,7:12
17,8:15
17,9:10
17,10:14
17,11:16
17,12:13
17,13:11
17,14:10
17,15:17
17,16:16
17,17:9
17,18:13
17,19:11
17,22:15
17,23:10
17,24:13
17,27:17
17,28:11
17,30:12
17,32:9
17,33:12
17,34:12
17,35:17
18,1:8
18,2:5
18,3:10
18,4:7
18,5:7
18,6:10
18,7:8
18,8:11
18,9:6
18,10:10
18,11:12
18,12:9
18,13:7
18,14:6
18,15:13
18,16:12
18,17:5
18,18:9
18,20:6
18,21:6
18,22:11
18,24:9
18,25:10
18,26:12
18,27:13
18,28:7
18,29:12
18,30:8
18,32:5
18,33:8
18,34:8
18,35:13
18,44:9
19,1:10
19,2:7
19,3:12
19,4:9
19,5:9
19,6:12
19,7:10
19,8:13
19,9:8
19,10:12
19,11:14
19,12:11
19,13:9
19,14:8
19,15:15
19,16:14
19,17:7
19,18:11
19,19:9
19,20:8
19,21:8
19,22:13
19,24:11
19,25:12
19,26:14
19,27:15
19,28:9
19,29:14
19,30:10
19,32:7
19,33:10
19,34:10
19,35:15
19,44:11
20,1:11
20,2:8
20,3:13
20,4:10
20,5:10
20,6:13
20,7:11
20,8:14
20,9:9
20,10:13
20,11:15
20,12:12
20,13:10
20,14:9
20,15:16
20,16:15
20,17:8
20,18:12
20,19:10
20,20:9
20,22:14
20,23:9
20,24:12
20,27:16
20,28:10
20,30:11
20,32:8
20,33:11
20,34:11
20,35:16
21,1:11
21,2:8
21,3:13
21,4:10
21,5:10
21,6:13
21,7:11
21,8:14
21,9:9
21,10:13
21,11:15
21,12:12
21,13:10
21,14:9
21,15:16
21,16:15
21,17:8
21,18:12
21,19:10
21,20:9
21,21:9
21,22:14
21,23:9
21,24:12
21,25:13
21,27:16
21,28:10
21,30:11
21,32:8
21,33:11
21,34:11
21,35:16
22,1:6
22,2:3
22,3:8
22,4:5
22,5:5
22,6:8
22,7:6
22,8:9
22,9:4
22,10:8
22,11:10
22,12:7
22,13:5
22,14:4
22,15:11
22,16:10
22,17:3
22,18:7
22,19:5
22,20:4
22,21:4
22,22:9
22,23:4
22,24:7
22,25:8
22,26:10
22,28:5
22,29:10
22,31:4
22,32:3
22,33:6
22,35:11
22,44:7
23,1:11
23,2:8
23,3:13
23,4:10
23,5:10
23,6:13
23,7:11
23,8:14
23,9:9
23,10:13
23,11:15
23,12:12
23,13:10
23,14:9
23,15:16
23,16:15
23,17:8
23,18:12
23,19:10
23,20:9
23,21:9
23,22:14
23,23:9
23,24:12
23,25:13
23,26:15
23,27:16
23,28:10
23,29:15
23,30:11
23,32:8
23,33:11
23,34:11
23,35:16
23,44:12
24,1:8
24,2:5
24,3:10
24,4:7
24,5:7
24,6:10
24,7:8
24,8:11
24,9:6
24,10:10
24,11:12
24,12:9
24,13:7
24,14:6
24,15:13
24,16:12
24,17:5
24,18:9
24,19:7
24,20:6
24,21:6
24,22:11
24,23:6
24,24:9
24,25:10
24,26:12
24,27:13
24,28:7
24,29:12
24,30:8
24,32:5
24,33:8
24,34:8
24,35:13
24,44:9
25,1:7
25,2:4
25,3:9
25,4:6
25,5:6
25,6:9
25,7:7
25,8:10
25,9:5
25,10:9
25,11:11
25,12:8
25,13:6
25,14:5
25,15:12
25,16:11
25,17:4
25,18:8
25,19:6
25,20:5
25,21:5
25,22:10
25,23:5
25,24:8
25,25:9
25,26:11
25,27:12
25,28:6
25,29:11
25,30:7
25,31:5
25,32:4
25,33:7
25,34:7
25,35:12
25,36:6
25,37:11
25,39:8
25,40:11
25,41:11
25,42:12
25,43:7
25,44:8
25,45:9
25,46:5
25,47:10
25,48:10
25,49:9
25,50:5
25,51:7
26,1:5
26,2:2
26,3:7
26,4:4
26,5:4
26,6:7
26,7:5
26,8:8
26,9:3
26,10:7
26,11:9
26,12:6
26,13:4
26,14:3
26,15:10
26,16:9
26,17:2
26,18:6
26,19:4
26,20:3
26,21:3
26,22:8
26,23:3
26,24:6
26,25:7
26,26:9
26,27:10
26,28:4
26,30:5
26,32:2
26,33:5
26,34:5
26,35:10
26,44:6
27,1:4
27,2:1
27,3:6
27,4:3
27,5:3
27,6:6
27,7:4
27,8:7
27,9:2
27,10:6
27,11:8
27,12:5
27,13:3
27,14:2
27,15:9
27,16:8
27,17:1
27,18:5
27,19:3
27,20:2
27,21:2
27,22:7
27,23:2
27,24:5
27,25:6
27,26:8
27,27:9
27,28:3
27,29:8
27,31:2
27,32:1
27,33:4
27,35:9
27,44:5
28,1:10
28,2:7
28,3:12
28,4:9
28,5:9
28,6:12
28,7:10
28,8:13
28,9:8
28,10:12
28,11:14
28,12:11
28,13:9
28,14:8
28,15:15
28,16:14
28,17:7
28,18:11
28,19:9
28,20:8
28,21:8
28,22:13
28,23:8
28,24:11
28,25:12
28,26:14
28,27:15
28,28:9
28,29:14
28,30:10
28,31:8
28,34:10
28,36:9
28,37:14
28,38:7
28,39:11
28,40:14
28,41:14
28,42:15
28,44:11
29,1:5
29,2:2
29,3:7
29,4:4
29,5:4
29,6:7
29,7:5
29,8:8
29,9:3
29,10:7
29,11:9
29,12:6
29,13:4
29,14:3
29,15:10
29,16:9
29,17:2
29,18:6
29,19:4
29,20:3
29,21:3
29,22:8
29,23:3
29,24:6
29,25:7
29,26:9
29,27:10
29,28:4
29,29:9
29,30:5
29,32:2
29,33:5
29,34:5
29,35:10
29,44:6
30,1:9
30,2:6
30,3:11
30,4:8
30,5:8
30,6:11
30,7:9
30,8:12
30,9:7
30,10:11
30,11:13
30,12:10
30,13:8
30,14:7
30,15:14
30,16:13
30,17:6
30,18:10
30,19:8
30,20:7
30,21:7
30,22:12
30,23:7
30,24:10
30,25:11
30,26:13
30,27:14
30,28:8
30,29:13
30,30:9
30,31:7
30,32:6
30,33:9
30,35:14
30,44:10
31,1:11
31,2:8
31,3:13
31,4:10
31,5:10
31,6:13
31,7:11
31,8:14
31,9:9
31,10:13
31,11:15
31,12:12
31,13:10
31,14:9
31,15:16
31,16:15
31,17:8
31,18:12
31,19:10
31,20:9
31,21:9
31,22:14
31,23:9
31,24:12
31,25:13
31,26:15
31,27:16
31,28:10
31,29:15
31,30:11
31,31:9
31,32:8
31,33:11
31,34:11
31,35:16
31,44:12
32,1:12
32,2:9
32,3:14
32,4:11
32,5:11
32,6:14
32,7:12
32,8:15
32,9:10
32,10:14
32,11:16
32,12:13
32,13:11
32,14:10
32,15:17
32,16:16
32,17:9
32,18:13
32,19:11
32,20:10
32,21:10
32,22:15
32,23:10
32,24:13
32,25:14
32,26:16
32,27:17
32,28:11
32,29:16
32,30:12
32,31:10
32,32:9
32,33:12
32,34:12
32,35:17
32,36:11
32,37:16
32,38:9
32,39:13
32,40:16
32,41:16
32,42:17
32,43:12
32,44:13
33,1:9
33,2:6
33,3:11
33,4:8
33,5:8
33,6:11
33,7:9
33,8:12
33,9:7
33,10:11
33,11:13
33,12:10
33,13:8
33,14:7
33,15:14
33,16:13
33,17:6
33,18:10
33,19:8
33,20:7
33,21:7
33,22:12
33,23:7
33,24:10
33,25:11
33,26:13
33,27:14
33,28:8
33,29:13
33,30:9
33,31:7
33,32:6
33,33:9
33,34:9
33,36:8
33,37:13
33,38:6
33,39:10
33,40:13
33,41:13
33,42:14
33,44:10
34,1:9
34,2:6
34,3:11
34,4:8
34,5:8
34,6:11
34,7:9
34,8:12
34,9:7
34,10:11
34,11:13
34,12:10
34,13:8
34,14:7
34,15:14
34,16:13
34,17:6
34,18:10
34,19:8
34,20:7
34,21:7
34,22:12
34,23:7
34,24:10
34,25:11
34,26:13
34,27:14
34,28:8
34,29:13
34,30:9
34,31:7
34,32:6
34,33:9
34,34:9
34,35:14
34,44:10
35,1:4
35,2:1
35,3:6
35,4:3
35,5:3
35,6:6
35,7:4
35,8:7
35,9:2
35,10:6
35,11:8
35,12:5
35,13:3
35,14:2
35,15:9
35,16:8
35,17:1
35,18:5
35,19:3
35,20:2
35,21:2
35,22:7
35,23:2
35,24:5
35,25:6
35,26:8
35,27:9
35,28:3
35,29:8
35,30:4
35,31:2
35,32:1
35,33:4
35,34:4
35,35:9
35,36:3
35,37:8
35,38:1
35,39:5
35,40:8
35,41:8
35,42:9
35,44:5
36,1:10
36,2:7
36,3:12
36,4:9
36,5:9
36,6:12
36,7:10
36,8:13
36,9:8
36,10:12
36,11:14
36,12:11
36,13:9
36,14:8
36,15:15
36,16:14
36,17:7
36,18:11
36,19:9
36,20:8
36,21:8
36,22:13
36,23:8
36,24:11
36,25:12
36,26:14
36,27:15
36,28:9
36,29:14
36,30:10
36,31:8
36,32:7
36,33:10
36,34:10
36,35:15
36,36:9
36,44:11
37,1:5
37,2:2
37,3:7
37,4:4
37,5:4
37,6:7
37,7:5
37,8:8
37,9:3
37,10:7
37,11:9
37,12:6
37,13:4
37,14:3
37,15:10
37,16:9
37,17:2
37,18:6
37,19:4
37,20:3
37,21:3
37,22:8
37,23:3
37,24:6
37,25:7
37,26:9
37,27:10
37,28:4
37,29:9
37,30:5
37,31:3
37,32:2
37,33:5
37,34:5
37,35:10
37,36:4
37,37:9
37,38:2
37,44:6
38,1:12
38,2:9
38,3:14
38,4:11
38,5:11
38,6:14
38,7:12
38,8:15
38,9:10
38,10:14
38,11:16
38,12:13
38,13:11
38,14:10
38,15:17
38,16:16
38,17:9
38,18:13
38,19:11
38,20:10
38,21:10
38,22:15
38,23:10
38,24:13
38,25:14
38,26:16
38,27:17
38,28:11
38,29:16
38,30:12
38,31:10
38,32:9
38,33:12
38,34:12
38,35:17
38,36:11
38,37:16
38,38:9
38,39:13
38,40:16
38,41:16
38,42:17
38,43:12
38,44:13
38,45:14
38,46:10
38,47:15
38,48:15
38,49:14
38,50:10
38,51:12
39,1:8
39,2:5
39,3:10
39,4:7
39,5:7
39,6:10
39,7:8
39,8:11
39,9:6
39,10:10
39,11:12
39,12:9
39,13:7
39,14:6
39,15:13
39,16:12
39,17:5
39,18:9
39,19:7
39,20:6
39,21:6
39,22:11
39,23:6
39,24:9
39,25:10
39,26:12
39,27:13
39,28:7
39,29:12
39,30:8
39,31:6
39,32:5
39,33:8
39,34:8
39,35:13
39,36:7
39,37:12
39,38:5
39,39:9
39,40:12
39,41:12
39,42:13
39,44:9
40,1:5
40,2:2
40,3:7
40,4:4
40,5:4
40,6:7
40,7:5
40,8:8
40,9:3
40,10:7
40,11:9
40,12:6
40,13:4
40,14:3
40,15:10
40,16:9
40,17:2
40,18:6
40,19:4
40,20:3
40,21:3
40,22:8
40,23:3
40,24:6
40,25:7
40,26:9
40,27:10
40,28:4
40,29:9
40,30:5
40,31:3
40,32:2
40,33:5
40,34:5
40,35:10
40,36:4
40,37:9
40,38:2
40,39:6
40,40:9
40,41:9
40,42:10
40,44:6
41,1:5
41,2:2
41,3:7
41,4:4
41,5:4
41,6:7
41,7:5
41,8:8
41,9:3
41,10:7
41,11:9
41,12:6
41,13:4
41,14:3
41,15:10
41,16:9
41,17:2
41,18:6
41,19:4
41,20:3
41,21:3
41,22:8
41,23:3
41,24:6
41,25:7
41,26:9
41,27:10
41,28:4
41,29:9
41,30:5
41,31:3
41,32:2
41,33:5
41,34:5
41,35:10
41,36:4
41,37:9
41,38:2
41,39:6
41,40:9
41,41:9
41,44:6
42,1:4
42,2:1
42,3:6
42,4:3
42,5:3
42,6:6
42,7:4
42,8:7
42,9:2
42,10:6
42,11:8
42,12:5
42,13:3
42,14:2
42,15:9
42,16:8
42,17:1
42,18:5
42,19:3
42,20:2
42,21:2
42,22:7
42,23:2
42,24:5
42,25:6
42,26:8
42,27:9
42,28:3
42,29:8
42,30:4
42,31:2
42,32:1
42,33:4
42,34:4
42,35:9
42,36:3
42,37:8
42,38:1
42,39:5
42,40:8
42,41:8
42,42:9
42,44:5
43,1:9
43,2:6
43,3:11
43,4:8
43,5:8
43,6:11
43,7:9
43,8:12
43,9:7
43,10:11
43,11:13
43,12:10
43,13:8
43,14:7
43,15:14
43,16:13
43,17:6
43,18:10
43,19:8
43,20:7
43,21:7
43,22:12
43,23:7
43,24:10
43,25:11
43,26:13
43,27:14
43,28:8
43,29:13
43,30:9
43,31:7
43,32:6
43,33:9
43,34:9
43,35:14
43,36:8
43,37:13
43,38:6
43,39:10
43,40:13
43,41:13
43,42:14
43,43:9
43,44:10
44,1:8
44,2:5
44,3:10
44,4:7
44,5:7
44,6:10
44,7:8
44,8:11
44,9:6
44,10:10
44,11:12
44,12:9
44,13:7
44,14:6
44,15:13
44,16:12
44,17:5
44,18:9
44,19:7
44,20:6
44,21:6
44,22:11
44,23:6
44,24:9
44,25:10
44,26:12
44,27:13
44,28:7
44,29:12
44,30:8
44,31:6
44,32:5
44,33:8
44,34:8
44,35:13
44,36:7
44,37:12
44,38:5
44,39:9
44,40:12
44,41:12
44,42:13
44,43:8
44,44:9
45,1:7
45,2:4
45,3:9
45,4:6
45,5:6
45,6:9
45,7:7
45,8:10
45,9:5
45,10:9
45,11:11
45,12:8
45,13:6
45,14:5
45,15:12
45,16:11
45,17:4
45,18:8
45,19:6
45,20:5
45,21:5
45,22:10
45,23:5
45,24:8
45,25:9
45,26:11
45,27:12
45,28:6
45,29:11
45,30:7
45,31:5
45,32:4
45,33:7
45,34:7
45,35:12
45,36:6
45,37:11
45,38:4
45,39:8
45,40:11
45,41:11
45,42:12
45,43:7
45,44:8
45,45:9
46,1:11
46,2:8
46,3:13
46,4:10
46,5:10
46,6:13
46,7:11
46,8:14
46,9:9
46,10:13
46,11:15
46,12:12
46,13:10
46,14:9
46,15:16
46,16:15
46,17:8
46,18:12
46,19:10
46,20:9
46,21:9
46,22:14
46,23:9
46,24:12
46,25:13
46,26:15
46,27:16
46,28:10
46,29:15
46,30:11
46,31:9
46,32:8
46,33:11
46,34:11
46,35:16
46,36:10
46,37:15
46,38:8
46,39:12
46,40:15
46,41:15
46,42:16
46,43:11
46,44:12
46,45:13
46,46:9
46,48:14
46,49:13
47,1:6
47,2:3
47,3:8
47,4:5
47,5:5
47,6:8
47,7:6
47,8:9
47,9:4
47,10:8
47,11:10
47,12:7
47,13:5
47,14:4
47,15:11
47,16:10
47,17:3
47,18:7
47,19:5
47,20:4
47,21:4
47,22:9
47,23:4
47,24:7
47,25:8
47,26:10
47,27:11
47,28:5
47,29:10
47,30:6
47,31:4
47,32:3
47,33:6
47,34:6
47,35:11
47,36:5
47,37:10
47,38:3
47,39:7
47,40:10
47,41:10
47,42:11
47,43:6
47,44:7
47,45:8
47,46:4
47,47:9
47,48:9
47,49:8
47,50:4
48,1:6
48,2:3
48,3:8
48,4:5
48,5:5
48,6:8
48,7:6
48,8:9
48,9:4
48,10:8
48,11:10
48,12:7
48,13:5
48,14:4
48,15:11
48,16:10
48,17:3
48,18:7
48,19:5
48,20:4
48,21:4
48,22:9
48,23:4
48,24:7
48,25:8
48,26:10
48,27:11
48,28:5
48,29:10
48,30:6
48,31:4
48,32:3
48,33:6
48,34:6
48,35:11
48,36:5
48,37:10
48,38:3
48,39:7
48,40:10
48,41:10
48,42:11
48,43:6
48,44:7
48,45:8
48,46:4
48,47:9
48,48:9
48,49:8
48,50:4
48,51:6
48,52:10
48,53:6
48,54:10
48,56:3
49,1:7
49,2:4
49,3:9
49,4:6
49,5:6
49,6:9
49,7:7
49,8:10
49,9:5
49,10:9
49,11:11
49,12:8
49,13:6
49,14:5
49,15:12
49,16:11
49,17:4
49,18:8
49,19:6
49,20:5
49,21:5
49,22:10
49,23:5
49,24:8
49,25:9
49,26:11
49,27:12
49,28:6
49,29:11
49,30:7
49,31:5
49,32:4
49,33:7
49,34:7
49,35:12
49,36:6
49,37:11
49,38:4
49,39:8
49,40:11
49,41:11
49,42:12
49,43:7
49,44:8
49,45:9
49,46:5
49,47:10
49,48:10
49,49:9
49,50:5
49,51:7
49,52:11
49,53:7
49,54:11
49,55:6
49,56:4
49,57:9
50,1:11
50,2:8
50,3:13
50,4:10
50,5:10
50,6:13
50,7:11
50,8:14
50,9:9
50,10:13
50,11:15
50,12:12
50,13:10
50,14:9
50,15:16
50,16:15
50,17:8
50,18:12
50,19:10
50,20:9
50,21:9
50,22:14
50,23:9
50,24:12
50,25:13
50,26:15
50,27:16
50,28:10
50,29:15
50,30:11
50,31:9
50,32:8
50,33:11
50,34:11
50,35:16
50,36:10
50,37:15
50,38:8
50,39:12
50,40:15
50,41:15
50,42:16
50,43:11
50,44:12
50,45:13
50,46:9
50,47:14
50,48:14
50,49:13
50,50:9
50,51:11
50,52:15
50,53:11
50,54:15
50,55:10
50,56:8
50,57:13
51,1:9
51,2:6
51,3:11
51,4:8
51,5:8
51,6:11
51,7:9
51,8:12
51,9:7
51,10:11
51,11:13
51,12:10
51,13:8
51,14:7
51,15:14
51,16:13
51,17:6
51,18:10
51,19:8
51,20:7
51,21:7
51,22:12
51,23:7
51,24:10
51,25:11
51,26:13
51,27:14
51,28:8
51,29:13
51,30:9
51,31:7
51,32:6
51,33:9
51,34:9
51,35:14
51,36:8
51,37:13
51,38:6
51,39:10
51,40:13
51,41:13
51,42:14
51,43:9
51,44:10
51,45:11
51,46:7
51,47:12
51,48:12
51,49:11
51,50:7
51,51:9
52,1:5
52,2:2
52,3:7
52,4:4
52,5:4
52,6:7
52,7:5
52,8:8
52,9:3
52,10:7
52,11:9
52,12:6
52,13:4
52,14:3
52,15:10
52,16:9
52,17:2
52,18:6
52,19:4
52,20:3
52,21:3
52,22:8
52,23:3
52,24:6
52,25:7
52,26:9
52,27:10
52,28:4
52,29:9
52,30:5
52,31:3
52,32:2
52,33:5
52,34:5
52,35:10
52,36:4
52,37:9
52,38:2
52,39:6
52,40:9
52,41:9
52,42:10
52,43:5
52,44:6
52,45:7
52,46:3
52,47:8
52,48:8
52,49:7
52,50:3
52,51:5
52,52:9
53,1:9
53,2:6
53,3:11
53,4:8
53,5:8
53,6:11
53,7:9
53,8:12
53,9:7
53,10:11
53,11:13
53,12:10
53,13:8
53,14:7
53,15:14
53,16:13
53,17:6
53,18:10
53,19:8
53,20:7
53,21:7
53,22:12
53,23:7
53,24:10
53,25:11
53,26:13
53,27:14
53,28:8
53,29:13
53,30:9
53,31:7
53,32:6
53,33:9
53,34:9
53,35:14
53,36:8
53,37:13
53,38:6
53,39:10
53,40:13
53,41:13
53,42:14
53,43:9
53,44:10
53,45:11
53,46:7
53,47:12
53,48:12
53,49:11
53,50:7
53,51:9
53,52:13
53,53:9
54,1:5
54,2:2
54,3:7
54,4:4
54,5:4
54,6:7
54,7:5
54,8:8
54,9:3
54,10:7
54,11:9
54,12:6
54,13:4
54,14:3
54,15:10
54,16:9
54,17:2
54,18:6
54,19:4
54,20:3
54,21:3
54,22:8
54,23:3
54,24:6
54,25:7
54,26:9
54,27:10
54,28:4
54,29:9
54,30:5
54,31:3
54,32:2
54,33:5
54,34:5
54,35:10
54,36:4
54,37:9
54,38:2
54,39:6
54,40:9
54,41:9
54,42:10
54,43:5
54,44:6
54,45:7
54,46:3
54,47:8
54,48:8
54,49:7
54,50:3
54,51:5
54,52:9
54,53:5
54,54:9
55,1:10
55,2:7
55,3:12
55,4:9
55,5:9
55,6:12
55,7:10
55,8:13
55,9:8
55,10:12
55,11:14
55,12:11
55,13:9
55,14:8
55,15:15
55,16:14
55,17:7
55,18:11
55,19:9
55,20:8
55,21:8
55,22:13
55,23:8
55,24:11
55,25:12
55,26:14
55,27:15
55,28:9
55,29:14
55,30:10
55,31:8
55,32:7
55,33:10
55,34:10
55,35:15
55,36:9
55,37:14
55,38:7
55,39:11
55,40:14
55,41:14
55,42:15
55,43:10
55,44:11
55,45:12
55,46:8
55,47:13
55,48:13
55,49:12
55,50:8
55,51:10
55,52:14
55,53:10
55,54:14
55,55:9
55,56:7
56,1:12
56,2:9
56,3:14
56,4:11
56,5:11
56,6:14
56,7:12
56,8:15
56,9:10
56,10:14
56,11:16
56,12:13
56,13:11
56,14:10
56,15:17
56,16:16
56,17:9
56,18:13
56,19:11
56,20:10
56,21:10
56,22:15
56,23:10
56,24:13
56,25:14
56,26:16
56,27:17
56,28:11
56,29:16
56,30:12
56,31:10
56,32:9
56,33:12
56,34:12
56,35:17
56,36:11
56,37:16
56,38:9
56,39:13
56,40:16
56,41:16
56,42:17
56,43:12
56,44:13
56,45:14
56,46:10
56,47:15
56,48:15
56,49:14
56,50:10
56,51:12
56,52:16
56,53:12
56,54:16
56,55:11
56,56:9
57,1:7
57,2:4
57,3:9
57,4:6
57,5:6
57,6:9
57,7:7
57,8:10
57,9:5
57,10:9
57,11:11
57,12:8
57,13:6
57,14:5
57,15:12
57,16:11
57,17:4
57,18:8
57,19:6
57,20:5
57,21:5
57,22:10
57,23:5
57,24:8
57,25:9
57,26:11
57,27:12
57,28:6
57,29:11
57,30:7
57,31:5
57,32:4
57,33:7
57,34:7
57,35:12
57,36:6
57,37:11
57,38:4
57,39:8
57,40:11
57,41:11
57,42:12
57,43:7
57,44:8
57,45:9
57,46:5
57,47:10
57,48:10
57,49:9
57,50:5
57,51:7
57,52:11
57,53:7
57,54:11
57,55:6
57,56:4
57,57:9
58,1:4
58,2:1
58,3:6
58,4:3
58,5:3
58,6:6
58,7:4
58,8:7
58,9:2
58,10:6
58,11:8
58,12:5
58,13:3
58,14:2
58,15:9
58,16:8
58,17:1
58,18:5
58,19:3
58,20:2
58,21:2
58,22:7
58,23:2
58,24:5
58,25:6
58,26:8
58,27:9
58,28:3
58,29:8
58,30:4
58,31:2
58,32:1
58,33:4
58,34:4
58,35:9
58,36:3
58,37:8
58,38:1
58,39:5
58,40:8
58,41:8
58,42:9
58,43:4
58,44:5
58,45:6
58,46:2
58,47:7
58,48:7
58,49:6
58,50:2
58,51:4
58,52:8
58,53:4
58,54:8
58,55:3
58,56:1
58,57:6
58,58:9

<end>

<optimal SALBP-1 value>
27


<rand seed>
467321153

<Lower Bounds>
Lm1=25
Lms1=25
Lm2=24
Lm3=24
Lm4=25
Best=25

<Optimal Stations (Iterations: 10)>
38
